
  25    0


   0  13 2 3 4 5 7 8 9 12 20 21 22 23 24 
   4   3 19 15 11 
   6   3 18 13 10 
   1   3 15 14 13 
   8   1 6 
   6   2 16 13 
   6   2 17 15 
   5   2 16 13 
   3   2 14 13 
  10   1 14 
   7   1 13 
   8   1 13 
   4   1 25
   6   1 25
   1   1 25
   3   1 25
   1   1 25
   6   1 25
   4   1 25
  10   1 25
   8   1 25
   2   1 25
   6   1 25
   9   1 25
   0   0 
